p cnf 1018 1247
c ind 713 718 719 720 721 722 724 725 726 727 0
c ind 728 729 730 731 732 733 734 735 736 737 0
c ind 738 739 740 741 742 743 748 749 755 756 0
c ind 757 758 759 760 761 762 763 764 765 766 0
c ind 767 768 769 778 779 780 781 784 785 786 0
c ind 787 788 789 792 793 794 795 796 797 806 0
c ind 807 808 809 812 813 814 815 816 817 820 0
c ind 821 822 823 824 825 826 827 828 829 830 0
c ind 832 833 834 835 836 837 838 839 840 841 0
c ind 842 843 844 845 846 847 848 849 850 851 0
c ind 852 854 856 857 858 859 860 861 862 863 0
c ind 864 865 869 870 871 872 873 875 877 878 0
c ind 879 880 881 882 883 884 885 886 892 893 0
c ind 904 905 906 907 909 910 912 914 918 923 0
c ind 924 925 926 927 928 929 930 931 932 933 0
c ind 934 935 936 937 938 940 942 943 946 947 0
c ind 948 949 950 954 955 956 957 958 961 962 0
c ind 963 964 965 966 967 968 969 970 971 972 0
c ind 974 976 977 978 980 1009 1016 989 985 994 0
c ind 1015 988 1007 1008 984 993 1006 998 999 1001 0
c ind 997 1003 714 715 1000 1002 1005 1014 983 987 0
c ind 1011 981 992 996 1004 1013 986 979 991 995 0
c ind 723 982 1010 1012 990 888 891 889 890 831 0
c ind 716 975 717 973 959 960 953 951 952 944 0
c ind 945 939 941 911 913 919 920 921 922 916 0
c ind 917 897 898 900 901 902 903 874 876 894 0
c ind 895 896 899 908 915 868 866 867 887 853 0
c ind 855 712 744 747 745 746 752 754 751 753 0
c ind 810 750 811 805 818 819 801 783 790 791 0
c ind 798 799 800 802 803 777 804 770 773 782 0
c ind 771 772 774 775 776 1 0
c ret 596 597 598 599 600 601 602 603 604 605 0
c ret 606 607 608 609 610 611 612 613 614 615 0
c ret 616 617 618 619 620 621 622 623 624 625 0
c ret 626 627 628 629 630 631 632 633 634 635 0
c ret 636 637 638 639 640 641 642 643 644 645 0
c ret 646 647 648 649 650 651 652 653 654 655 0
c ret 656 657 658 659 660 661 662 663 664 665 0
c ret 666 667 668 669 670 671 672 673 674 675 0
c ret 676 291 677 297 298 678 299 679 300 680 0
c ret 301 302 303 304 305 306 307 308 309 310 0
c ret 311 312 313 314 315 681 682 316 317 683 0
c ret 684 318 319 320 321 322 685 323 324 325 0
c ret 326 327 328 686 329 330 687 331 332 333 0
c ret 688 292 689 334 335 336 337 338 339 340 0
c ret 690 341 342 343 691 692 344 345 346 347 0
c ret 693 694 348 349 350 351 352 353 354 355 0
c ret 356 357 358 359 360 361 695 362 696 363 0
c ret 364 365 697 366 698 367 368 369 370 371 0
c ret 372 373 699 374 293 375 376 377 700 378 0
c ret 701 379 380 381 702 703 382 383 384 385 0
c ret 386 387 388 389 390 704 705 391 392 393 0
c ret 394 395 706 396 397 398 399 400 401 402 0
c ret 403 404 707 405 406 407 708 408 709 409 0
c ret 410 710 411 412 711 413 414 294 415 416 0
c ret 417 418 419 420 421 422 423 424 425 426 0
c ret 427 428 429 430 431 432 433 434 435 436 0
c ret 437 438 439 440 441 442 443 444 445 446 0
c ret 447 448 449 450 451 452 453 454 455 456 0
c ret 457 458 459 460 461 462 463 464 465 466 0
c ret 467 468 469 470 471 472 473 474 475 476 0
c ret 477 478 479 480 481 482 483 484 485 295 0
c ret 486 487 488 489 490 491 492 493 494 495 0
c ret 496 497 498 499 500 501 502 503 504 505 0
c ret 506 507 508 509 510 511 512 513 514 515 0
c ret 516 517 518 519 520 521 522 523 524 296 0
c ret 525 526 527 528 529 530 531 532 533 534 0
c ret 535 536 537 538 539 540 541 542 543 544 0
c ret 545 546 547 548 549 550 551 552 553 554 0
c ret 555 556 557 558 559 560 561 562 563 564 0
c ret 565 566 567 568 569 570 571 572 573 574 0
c ret 575 576 577 578 579 580 581 582 583 584 0
c ret 585 586 587 588 589 590 591 592 593 594 0
c ret 595 0
2 4 5 -287 0
2 3 5 -287 0
-2 287 0
-2 -5 0
-2 -3 -4 0
3 523 0
3 -524 530 0
3 524 531 0
-3 -523 524 -531 0
-3 -523 -524 -530 0
4 523 0
4 -524 -530 0
4 524 -531 0
-4 -523 524 531 0
-4 -523 -524 530 0
5 6 54 100 -121 0
5 -6 -54 100 -121 0
-5 -100 0
-5 6 -54 0
-5 121 0
-5 -6 54 0
6 7 -13 0
6 7 50 0
-6 -7 0
-6 13 -50 0
7 -8 -9 0
7 -9 -12 0
-7 9 0
-7 8 12 0
8 944 0
8 -945 -951 0
8 945 -952 0
-8 -944 945 952 0
-8 -944 -945 951 0
9 -10 -11 0
-8 9 -11 0
-9 11 0
8 -9 10 0
-8 10 0
10 953 -960 0
10 -953 -959 0
8 -10 -953 959 0
8 -10 953 960 0
11 944 0
11 -945 951 0
11 945 952 0
-11 -944 945 -952 0
-11 -944 -945 -951 0
-8 12 0
12 -953 959 0
12 953 960 0
8 -12 -953 -959 0
8 -12 953 -960 0
13 -14 -49 -1016 0
13 14 -15 -49 0
-13 49 0
-13 -14 1016 0
-13 14 15 0
14 939 -941 0
-14 -939 0
-14 941 0
15 -16 -1015 0
15 16 -17 0
-15 -16 1015 0
-15 16 17 0
16 911 -913 0
-16 -911 0
-16 913 0
17 18 41 48 0
17 18 41 -44 0
-17 -18 0
-17 -41 0
-17 44 -48 0
18 -39 712 -887 0
18 19 712 887 0
-18 -712 0
-18 39 -887 0
-18 -19 887 0
19 -20 -1012 0
-19 1012 0
-19 20 0
20 -21 35 0
-20 21 0
-20 -35 0
21 -28 29 0
21 22 29 -777 0
-21 -29 0
-21 -22 28 0
-21 28 777 0
22 23 0
22 26 -776 0
22 26 782 0
-22 -23 -26 0
-22 -23 776 -782 0
23 -24 25 -770 -777 0
-23 24 0
-23 -25 0
-23 770 0
-23 777 0
24 771 772 773 0
-24 -771 0
-24 -773 0
-24 -772 0
25 774 -775 0
-25 -774 0
-25 775 0
26 27 776 782 -783 0
-26 -776 0
-26 -27 0
-26 783 0
-26 -782 0
27 790 791 0
-27 -790 0
-27 -791 0
24 28 -770 0
25 28 -770 -776 0
-28 770 0
-24 -28 776 0
-24 -25 -28 0
29 31 34 0
29 31 -33 0
29 30 31 0
-29 -31 0
-29 -30 33 -34 0
30 799 800 801 0
-30 -799 0
-30 -801 0
-30 -800 0
30 31 -798 0
31 32 -798 -804 0
-31 798 0
-30 -31 804 0
-30 -31 -32 0
32 802 -803 0
-32 -802 0
-32 803 0
33 810 811 0
33 810 818 819 0
-33 -810 0
-33 -811 -818 0
-33 -811 -819 0
32 34 -798 804 -805 0
-34 805 0
-32 -34 0
-34 798 0
-34 -804 0
35 -36 -744 0
35 -38 -744 0
35 -37 -744 0
-35 744 0
-35 36 37 38 0
36 -745 746 747 0
-36 745 0
-36 -747 0
-36 -746 0
37 750 753 754 0
-37 -750 0
-37 -754 0
-37 -753 0
38 -750 751 752 0
-38 750 0
-38 -752 0
-38 -751 0
39 -40 1013 0
19 39 40 0
-39 -40 -1013 0
-19 -39 40 0
40 853 -855 0
-40 -853 0
-40 855 0
41 -42 -43 -897 0
41 -42 -43 -898 0
-41 43 0
-41 42 0
-41 897 898 0
42 900 901 902 903 0
-42 -903 0
-42 -902 0
-42 -900 0
-42 -901 0
43 -894 -895 -896 899 0
-43 896 0
-43 -899 0
-43 894 0
-43 895 0
39 44 -45 0
-39 -44 0
-44 45 0
45 46 47 0
-45 -46 0
-45 -47 0
46 866 867 868 0
-46 -866 0
-46 -868 0
-46 -867 0
47 874 -876 0
-47 -874 0
-47 876 0
47 48 -712 0
48 -712 1014 0
-48 712 0
-47 -48 -1014 0
49 -908 915 0
-49 908 0
-49 -915 0
50 51 -908 0
15 17 50 0
17 50 51 0
15 50 -908 0
-17 -50 908 0
-15 -50 -51 0
51 53 -908 -915 0
51 52 -908 -915 0
-51 908 0
-51 915 0
-51 -52 -53 0
52 919 -920 -921 922 0
-52 -919 0
-52 -922 0
-52 921 0
-52 920 0
53 -916 917 0
-53 916 0
-53 -917 0
54 -55 -57 0
54 -55 96 0
-54 55 0
-54 57 -96 0
4 55 -56 0
3 55 -56 0
-55 56 0
-3 -4 -55 0
56 -552 -581 -610 -639 0
-56 639 0
-56 552 0
-56 610 0
-56 581 0
57 -58 -95 -711 0
57 58 -59 -95 0
-57 95 0
-57 -58 711 0
-57 58 59 0
58 518 -520 0
-58 -518 0
-58 520 0
59 -60 -710 0
59 60 -61 0
-59 -60 710 0
-59 60 61 0
60 490 -492 0
-60 -490 0
-60 492 0
61 62 87 94 0
61 62 87 -90 0
-61 -62 0
-61 -87 0
-61 90 -94 0
62 -85 291 -466 0
62 63 291 466 0
-62 -291 0
-62 85 -466 0
-62 -63 466 0
63 -64 -707 0
-63 707 0
-63 64 0
64 65 -69 0
-64 -65 0
-64 69 0
65 -66 -323 0
65 -68 -323 0
65 -67 -323 0
-65 323 0
-65 66 67 68 0
66 -324 325 326 0
-66 324 0
-66 -326 0
-66 -325 0
67 329 332 333 0
-67 -329 0
-67 -333 0
-67 -332 0
68 -329 330 331 0
-68 329 0
-68 -331 0
-68 -330 0
69 70 -77 0
69 70 80 -356 0
-69 -70 0
-69 77 -80 0
-69 77 356 0
70 -71 74 0
70 74 377 0
-70 -74 0
-70 71 -377 0
71 -73 380 383 0
71 -72 -73 380 0
-71 -380 0
-71 73 0
-71 72 -383 0
72 381 -382 0
-72 -381 0
-72 382 0
73 378 379 0
-73 -378 0
-73 -379 0
72 -73 74 75 -76 0
73 -74 0
-74 -75 0
-72 -74 0
-74 76 0
75 389 390 0
75 389 397 398 0
-75 -389 0
-75 -390 -397 0
-75 -390 -398 0
76 -377 380 383 -384 0
-76 384 0
-76 -383 0
-76 377 0
-76 -380 0
77 78 -349 0
77 79 -349 -355 0
-77 349 0
-77 -78 355 0
-77 -78 -79 0
78 350 351 352 0
-78 -350 0
-78 -352 0
-78 -351 0
79 353 -354 0
-79 -353 0
-79 354 0
80 81 83 0
-80 -81 0
-80 -83 0
81 -82 355 -361 0
-81 82 0
-81 361 0
-81 -355 0
-78 79 82 -349 -356 0
78 -82 0
-79 -82 0
-82 349 0
-82 356 0
-82 83 -84 -369 0
-82 83 -84 -370 0
-83 84 0
82 -83 0
-83 369 370 0
84 355 361 -362 0
-84 362 0
-84 -361 0
-84 -355 0
85 -86 708 0
63 85 86 0
-85 -86 -708 0
-63 -85 86 0
86 432 -434 0
-86 -432 0
-86 434 0
87 -88 -89 -476 0
87 -88 -89 -477 0
-87 89 0
-87 88 0
-87 476 477 0
88 479 480 481 482 0
-88 -482 0
-88 -481 0
-88 -479 0
-88 -480 0
89 -473 -474 -475 478 0
-89 475 0
-89 -478 0
-89 473 0
-89 474 0
85 90 -91 0
-85 -90 0
-90 91 0
91 92 93 0
-91 -92 0
-91 -93 0
92 445 446 447 0
-92 -445 0
-92 -447 0
-92 -446 0
93 453 -455 0
-93 -453 0
-93 455 0
93 94 -291 0
94 -291 709 0
-94 291 0
-93 -94 -709 0
95 -487 494 0
-95 487 0
-95 -494 0
96 97 -487 0
59 61 96 0
61 96 97 0
59 96 -487 0
-61 -96 487 0
-59 -96 -97 0
97 99 -487 -494 0
97 98 -487 -494 0
-97 487 0
-97 494 0
-97 -98 -99 0
98 -495 496 0
-98 495 0
-98 -496 0
99 498 -499 -500 501 0
-99 -498 0
-99 -501 0
-99 500 0
-99 499 0
100 101 -111 0
-100 -101 0
-100 111 0
7 101 -102 0
7 101 110 0
-7 -101 0
-101 102 -110 0
14 -49 102 -103 0
-14 -49 102 -994 0
49 -102 0
14 -102 103 0
-14 -102 994 0
-16 103 -993 0
16 103 -104 0
-16 -103 993 0
16 -103 104 0
41 104 105 109 0
41 104 105 -108 0
-41 -104 0
-104 -105 0
-104 108 -109 0
105 -107 712 -887 0
105 106 712 887 0
-105 -712 0
-105 107 -887 0
-105 -106 887 0
-20 106 -990 0
-106 990 0
20 -106 0
-40 107 991 0
40 106 107 0
-40 -107 -991 0
40 -106 -107 0
-45 107 108 0
45 -108 0
-107 -108 0
47 109 -712 0
109 -712 992 0
-109 712 0
-47 -109 -992 0
103 110 -908 0
51 104 110 0
103 104 110 0
51 110 -908 0
-51 -103 -110 0
-104 -110 908 0
-55 111 -112 0
-55 111 120 0
55 -111 0
-111 112 -120 0
58 -95 112 -113 0
-58 -95 112 -689 0
95 -112 0
58 -112 113 0
-58 -112 689 0
-60 113 -688 0
60 113 -114 0
-60 -113 688 0
60 -113 114 0
87 114 115 119 0
87 114 115 -118 0
-87 -114 0
-114 -115 0
-114 118 -119 0
115 -117 291 -466 0
115 116 291 466 0
-115 -291 0
-115 117 -466 0
-115 -116 466 0
-64 116 -685 0
-116 685 0
64 -116 0
-86 117 686 0
86 116 117 0
-86 -117 -686 0
86 -116 -117 0
-91 117 118 0
91 -118 0
-117 -118 0
93 119 -291 0
119 -291 687 0
-119 291 0
-93 -119 -687 0
113 120 -487 0
97 114 120 0
113 114 120 0
97 120 -487 0
-97 -113 -120 0
-114 -120 487 0
101 121 -122 -161 0
-111 121 -122 -161 0
-121 161 0
-121 122 0
-101 111 -121 0
122 123 -143 -152 0
122 -133 143 152 0
122 123 143 152 0
122 -133 -143 -152 0
-122 143 -152 0
-122 -143 152 0
-122 -123 133 0
7 123 -124 0
7 123 132 0
-7 -123 0
-123 124 -132 0
14 -49 124 -125 0
-14 -49 124 -985 0
49 -124 0
14 -124 125 0
-14 -124 985 0
-16 125 -984 0
16 125 -126 0
-16 -125 984 0
16 -125 126 0
41 126 127 131 0
41 126 127 -130 0
-41 -126 0
-126 -127 0
-126 130 -131 0
127 128 -712 983 0
47 127 128 -712 0
-127 712 0
-127 -128 0
-47 -127 -983 0
-45 128 129 0
45 -128 0
-128 -129 0
20 40 129 0
-40 129 982 0
40 129 717 0
-40 -129 -982 0
-20 40 -129 -717 0
-20 40 130 -717 0
-20 130 -717 887 0
20 -130 0
-130 717 0
-40 -130 -887 0
131 712 982 0
131 712 887 0
40 131 712 0
-131 -712 0
-40 -131 -887 -982 0
125 132 -908 0
51 126 132 0
125 126 132 0
51 132 -908 0
-51 -125 -132 0
-126 -132 908 0
-55 133 -134 0
-55 133 142 0
55 -133 0
-133 134 -142 0
58 -95 134 -135 0
-58 -95 134 -680 0
95 -134 0
58 -134 135 0
-58 -134 680 0
-60 135 -679 0
60 135 -136 0
-60 -135 679 0
60 -135 136 0
87 136 137 141 0
87 136 137 -140 0
-87 -136 0
-136 -137 0
-136 140 -141 0
137 138 -291 678 0
93 137 138 -291 0
-137 291 0
-137 -138 0
-93 -137 -678 0
-91 138 139 0
91 -138 0
-138 -139 0
64 86 139 0
-86 139 677 0
86 139 296 0
-86 -139 -677 0
-64 86 -139 -296 0
-64 86 140 -296 0
-64 140 -296 466 0
64 -140 0
-140 296 0
-86 -140 -466 0
141 291 677 0
141 291 466 0
86 141 291 0
-141 -291 0
-86 -141 -466 -677 0
135 142 -487 0
97 136 142 0
135 136 142 0
97 142 -487 0
-97 -135 -142 0
-136 -142 487 0
7 143 -144 0
7 143 151 0
-7 -143 0
-143 144 -151 0
14 -49 144 -145 0
-14 -49 144 -989 0
49 -144 0
14 -144 145 0
-14 -144 989 0
-16 145 -988 0
16 145 -146 0
-16 -145 988 0
16 -145 146 0
41 146 147 150 0
41 146 147 -149 0
-41 -146 0
-146 -147 0
-146 149 -150 0
147 -148 712 -887 0
20 147 712 887 0
-147 -712 0
-147 148 -887 0
-20 -147 887 0
-40 148 986 0
20 40 148 0
-40 -148 -986 0
-20 40 -148 0
-45 148 149 0
45 -149 0
-148 -149 0
47 150 -712 0
150 -712 987 0
-150 712 0
-47 -150 -987 0
145 151 -908 0
51 146 151 0
145 146 151 0
51 151 -908 0
-51 -145 -151 0
-146 -151 908 0
-55 152 -153 0
-55 152 160 0
55 -152 0
-152 153 -160 0
58 -95 153 -154 0
-58 -95 153 -684 0
95 -153 0
58 -153 154 0
-58 -153 684 0
-60 154 -683 0
60 154 -155 0
-60 -154 683 0
60 -154 155 0
87 155 156 159 0
87 155 156 -158 0
-87 -155 0
-155 -156 0
-155 158 -159 0
156 -157 291 -466 0
64 156 291 466 0
-156 -291 0
-156 157 -466 0
-64 -156 466 0
-86 157 681 0
64 86 157 0
-86 -157 -681 0
-64 86 -157 0
-91 157 158 0
91 -158 0
-157 -158 0
93 159 -291 0
159 -291 682 0
-159 291 0
-93 -159 -682 0
154 160 -487 0
97 155 160 0
154 155 160 0
97 160 -487 0
-97 -154 -160 0
-155 -160 487 0
-123 161 -162 -210 0
133 161 -162 -210 0
-161 210 0
-161 162 0
123 -133 -161 0
162 -163 -178 201 0
162 163 178 -192 0
162 163 178 201 0
162 -163 -178 -192 0
-162 163 -178 0
-162 -163 178 0
-162 192 -201 0
7 163 -176 0
7 163 -175 0
7 163 -164 0
-7 -163 0
-163 164 175 176 0
164 167 -168 0
-45 164 165 -168 0
-164 168 0
-164 -165 -167 0
45 -164 -167 0
-40 165 1005 0
40 165 166 0
-40 -165 -1005 0
40 -165 -166 0
-20 166 -1004 0
-166 1004 0
20 -166 0
47 167 -712 0
167 -712 1006 0
-167 712 0
-47 -167 -1006 0
168 -169 174 0
-168 169 0
-168 -174 0
41 169 170 0
-41 -169 0
-169 -170 0
-16 170 -908 0
170 -171 -908 0
-170 908 0
16 -170 171 0
-14 171 172 915 0
-53 171 172 -915 0
-171 -172 0
53 -171 -915 0
14 -171 915 0
52 172 -173 0
-52 -172 0
-172 173 0
173 -908 -915 -916 917 0
-173 916 0
-173 -917 0
-173 908 0
-173 915 0
-165 174 712 -887 0
166 174 712 887 0
-174 -712 0
165 -174 -887 0
-166 -174 887 0
-14 -49 175 -1008 0
-175 1008 0
14 -175 0
49 -175 0
-16 176 -177 -1007 0
-176 1007 0
16 -176 0
-176 177 0
171 177 -908 0
-177 908 0
-171 -177 0
-55 178 -179 0
-55 178 -190 0
-55 178 -189 0
55 -178 0
-178 179 189 190 0
179 182 -183 0
-91 179 180 -183 0
-179 183 0
-179 -180 -182 0
91 -179 -182 0
-86 180 700 0
86 180 181 0
-86 -180 -700 0
86 -180 -181 0
-64 181 -699 0
-181 699 0
64 -181 0
93 182 -291 0
182 -291 701 0
-182 291 0
-93 -182 -701 0
183 -184 188 0
-183 184 0
-183 -188 0
87 184 185 0
-87 -184 0
-184 -185 0
-60 185 -487 0
185 -186 -487 0
-185 487 0
60 -185 186 0
-58 186 187 494 0
-98 186 187 -494 0
-186 -187 0
98 -186 -494 0
58 -186 494 0
-98 99 187 -487 -494 0
98 -187 0
-99 -187 0
-187 487 0
-187 494 0
-180 188 291 -466 0
181 188 291 466 0
-188 -291 0
180 -188 -466 0
-181 -188 466 0
-58 -95 189 -703 0
-189 703 0
58 -189 0
95 -189 0
-60 190 -191 -702 0
-190 702 0
60 -190 0
-190 191 0
186 191 -487 0
-191 487 0
-186 -191 0
7 192 -200 0
7 192 -199 0
7 192 -193 0
-7 -192 0
-192 193 199 200 0
193 196 -197 0
-45 193 194 -197 0
-193 197 0
-193 -194 -196 0
45 -193 -196 0
-40 194 996 0
40 194 195 0
-40 -194 -996 0
40 -194 -195 0
-20 195 -995 0
-195 995 0
20 -195 0
47 196 -712 0
196 -712 997 0
-196 712 0
-47 -196 -997 0
-169 197 198 0
169 -197 0
-197 -198 0
-194 198 712 -887 0
195 198 712 887 0
-198 -712 0
194 -198 -887 0
-195 -198 887 0
-14 -49 199 -999 0
-199 999 0
14 -199 0
49 -199 0
-16 -177 200 -998 0
-200 998 0
16 -200 0
177 -200 0
-55 201 -202 0
-55 201 -209 0
-55 201 -208 0
55 -201 0
-201 202 208 209 0
202 205 -206 0
-91 202 203 -206 0
-202 206 0
-202 -203 -205 0
91 -202 -205 0
-86 203 691 0
86 203 204 0
-86 -203 -691 0
86 -203 -204 0
-64 204 -690 0
-204 690 0
64 -204 0
93 205 -291 0
205 -291 692 0
-205 291 0
-93 -205 -692 0
-184 206 207 0
184 -206 0
-206 -207 0
-203 207 291 -466 0
204 207 291 466 0
-207 -291 0
203 -207 -466 0
-204 -207 466 0
-58 -95 208 -694 0
-208 694 0
58 -208 0
95 -208 0
-60 -191 209 -693 0
-209 693 0
60 -209 0
191 -209 0
192 210 -211 -265 0
-201 210 -211 -265 0
-210 265 0
-210 211 0
-192 201 -210 0
211 212 224 -241 -252 0
211 -212 -224 -241 -252 0
-211 252 0
-211 -212 224 0
-211 241 0
-211 212 -224 0
212 -213 215 0
-212 213 0
-212 -215 0
9 213 -214 0
12 213 -214 -944 0
-213 214 0
-9 -12 -213 0
-9 -213 944 0
41 173 214 0
41 52 214 0
-41 -214 0
-52 -173 -214 0
215 216 -218 0
215 222 223 0
215 -218 222 0
-215 218 -223 0
-215 -216 -222 0
-215 218 -222 0
216 -217 887 888 891 0
-216 217 0
-216 -891 0
-216 -887 0
-216 -888 0
217 889 890 0
-217 -889 0
-217 -890 0
218 219 -831 0
-21 218 -221 831 0
-218 -219 -831 0
21 -218 831 0
-218 221 831 0
-21 219 -220 0
21 -219 0
-219 220 0
220 -973 -975 0
35 220 973 0
220 -973 -979 0
-35 -220 973 0
-220 -973 975 979 0
221 -973 975 981 0
-221 973 0
-221 -981 0
-221 -975 0
216 222 712 0
-219 222 712 0
-222 -712 0
-216 219 -222 0
46 223 -712 0
-223 712 0
-46 -223 0
224 -229 291 0
92 224 225 -229 0
-224 229 0
-224 -225 -291 0
-92 -224 -291 0
225 226 -410 0
-69 225 -228 410 0
-225 -226 -410 0
69 -225 410 0
-225 228 410 0
-69 226 -227 0
69 -226 0
-226 227 0
227 -668 -670 0
65 227 668 0
227 -668 -674 0
-65 -227 668 0
-227 -668 670 674 0
228 -668 670 676 0
-228 668 0
-228 -676 0
-228 -670 0
225 229 231 -235 0
229 -230 231 -235 0
-229 235 0
-229 -231 0
-225 -229 230 0
230 466 467 0
-230 -466 0
-230 -467 0
-225 231 232 0
226 231 -233 0
-225 226 231 0
231 232 -233 0
225 -231 233 0
-226 -231 -232 0
232 468 469 470 0
-232 -468 0
-232 -470 0
-232 -469 0
233 -234 291 0
-233 -291 0
-233 234 0
-232 234 466 467 0
232 -234 0
-234 -467 0
-234 -466 0
-56 235 236 -239 0
56 -235 0
-235 -236 0
-235 239 0
-3 236 238 523 0
-3 236 -237 238 0
3 -236 0
-236 -238 0
-236 237 -523 0
-4 237 0
237 -532 538 0
237 532 539 0
4 -237 -532 -538 0
4 -237 532 -539 0
4 238 -532 538 0
4 238 532 539 0
-4 -238 0
-238 532 -539 0
-238 -532 -538 0
87 239 240 0
87 99 239 0
87 239 487 0
-87 -239 0
-99 -239 -240 -487 0
-98 240 -494 0
-240 494 0
98 -240 0
241 242 245 248 -249 0
241 -242 -245 248 -249 0
-241 -248 0
-241 242 -245 0
-241 249 0
-241 -242 245 0
-69 -235 242 -243 244 0
235 -242 0
-242 -244 0
69 -242 0
-242 243 0
243 -668 670 0
-243 668 0
-243 -670 0
-92 244 -291 0
-244 291 0
92 -244 0
-21 -213 245 -246 247 0
-245 246 0
-245 -247 0
21 -245 0
213 -245 0
246 -973 975 0
-246 973 0
-246 -975 0
-46 247 -712 0
-247 712 0
46 -247 0
-10 -11 -12 248 0
10 -248 0
11 -248 0
12 -248 0
22 29 249 -250 0
-28 29 249 -250 0
-249 250 0
-29 -249 0
-22 28 -249 0
35 -214 247 250 -251 0
214 -250 0
-247 -250 0
-35 -250 0
-250 251 0
251 -715 -716 0
251 -714 717 0
251 -714 -716 0
251 -715 717 0
-251 716 -717 0
-251 714 715 0
252 -253 -259 0
252 253 259 0
-252 253 -259 0
-252 -253 259 0
253 -257 291 0
92 253 -254 -257 0
-253 257 0
-253 254 -291 0
-92 -253 -291 0
254 410 -706 0
254 -255 -410 0
-254 255 -410 0
-254 410 706 0
-69 255 -668 0
65 -69 255 256 0
69 -255 0
-255 -256 668 0
-65 -255 668 0
256 302 705 0
-256 -302 0
-256 -705 0
-235 257 258 0
235 -257 0
-257 -258 0
234 254 258 0
254 255 258 0
-234 255 258 291 0
-234 -255 -258 0
234 -254 -258 0
-254 -258 -291 0
-213 259 260 712 0
-213 259 260 -264 0
213 -259 0
-259 -260 0
-259 264 -712 0
216 260 263 0
260 261 263 0
-216 260 261 712 0
-216 -260 -261 0
216 -260 -263 0
-260 -263 -712 0
-21 261 -973 0
-21 35 261 262 0
21 -261 0
-261 -262 973 0
-35 -261 973 0
262 723 1010 0
-262 -723 0
-262 -1010 0
263 831 -1011 0
-261 263 -831 0
261 -263 -831 0
-263 831 1011 0
46 -263 264 0
-46 -264 0
263 -264 0
265 -266 -277 0
265 266 277 0
-265 266 -277 0
-265 -266 277 0
-55 185 266 267 0
-55 266 267 276 0
55 -266 0
-266 -267 0
-185 -266 -276 0
267 -269 270 0
60 267 268 270 0
-267 -270 0
-267 -268 269 0
-60 -267 269 0
-58 268 494 -698 0
58 -268 0
-268 698 0
-268 -494 0
60 269 487 0
269 487 697 0
187 269 487 0
-269 -487 0
-60 -187 -269 -697 0
87 270 271 275 0
87 270 271 -274 0
-87 -270 0
-270 -271 0
-270 274 -275 0
271 -273 291 -466 0
271 272 291 466 0
-271 -291 0
-271 273 -466 0
-271 -272 466 0
-64 272 -295 0
-272 295 0
64 -272 0
-86 273 695 0
86 272 273 0
-86 -273 -695 0
86 -272 -273 0
-91 273 274 0
91 -274 0
-273 -274 0
93 275 -291 0
275 -291 696 0
-275 291 0
-93 -275 -696 0
-186 268 276 0
268 276 697 0
-268 -276 0
186 -276 -697 0
7 277 278 286 0
7 170 277 278 0
-7 -277 0
-277 -278 0
-170 -277 -286 0
278 280 908 0
16 278 279 280 0
-278 -280 0
-278 -279 -908 0
-16 -278 -908 0
-14 279 915 -1003 0
14 -279 0
-279 1003 0
-279 -915 0
41 280 281 285 0
41 280 281 -284 0
-41 -280 0
-280 -281 0
-280 284 -285 0
281 -283 712 -887 0
281 282 712 887 0
-281 -712 0
-281 283 -887 0
-281 -282 887 0
-20 282 -716 0
-282 716 0
20 -282 0
-40 283 1000 0
40 282 283 0
-40 -283 -1000 0
40 -282 -283 0
-45 283 284 0
45 -284 0
-283 -284 0
47 285 -712 0
285 -712 1001 0
-285 712 0
-47 -285 -1001 0
-171 279 286 0
279 286 1002 0
-279 -286 0
171 -286 -1002 0
65 -239 287 288 -289 0
239 -287 0
-287 -288 0
-65 -287 0
-287 289 0
77 81 83 288 0
-77 -288 0
-83 -288 0
-81 -288 0
-56 70 244 289 -290 0
-289 290 0
-244 -289 0
56 -289 0
-70 -289 0
290 -294 -295 0
290 -293 296 0
290 -293 -295 0
290 -294 296 0
-290 295 -296 0
-290 293 294 0
1 2 0
-1 -2 0
1017 0

